%SETS
JOBS = 1..10;
MACHINES = 1..5;
SPEED    = 5;

time = array3d(JOBS,MACHINES,1..SPEED,[1, 1, 1, 1, 1, 14, 5, 3, 2, 2, 13, 4, 3, 2, 2, 19, 6, 4, 3, 3, 16, 5, 4, 3, 3, 20, 7, 5, 4, 3, 20, 7, 4, 4, 3, 37, 12, 9, 7, 6, 32, 11, 7, 6, 5, 25, 8, 6, 5, 4, 14, 4, 3, 2, 2, 8, 3, 2, 1, 1, 94, 32, 23, 19, 16, 10, 3, 2, 2, 1, 6, 2, 1, 1, 1, 1, 1, 1, 1, 1, 105, 36, 25, 21, 18, 3, 1, 1, 1, 1, 10, 3, 2, 2, 1, 1, 1, 1, 1, 1, 6, 2, 1, 1, 1, 12, 4, 3, 2, 2, 58, 20, 14, 11, 10, 10, 3, 2, 2, 1, 108, 37, 26, 22, 19, 1, 1, 1, 1, 1, 11, 3, 2, 2, 2, 12, 4, 3, 2, 2, 37, 12, 9, 7, 6, 72, 24, 17, 14, 13, 9, 3, 2, 2, 1, 14, 5, 3, 2, 2, 8, 2, 1, 1, 1, 41, 14, 10, 8, 7, 26, 9, 6, 5, 4, 1, 1, 1, 1, 1, 23, 8, 5, 4, 4, 41, 14, 10, 8, 7, 1, 1, 1, 1, 1, 15, 5, 3, 3, 2, 40, 13, 9, 8, 7, 115, 39, 28, 23, 20, 22, 7, 5, 4, 4, 1, 1, 1, 1, 1, 15, 5, 3, 3, 2, 5, 1, 1, 1, 1, 25, 8, 6, 5, 4, 6, 2, 1, 1, 1, 4, 1, 1, 1, 1, 19, 6, 4, 4, 3]);
energy = array3d(JOBS,MACHINES,1..SPEED,[99, 99, 99, 99, 99, 86, 95, 97, 98, 98, 87, 96, 97, 98, 98, 82, 94, 96, 97, 97, 85, 95, 96, 97, 97, 81, 93, 95, 96, 97, 81, 93, 96, 96, 97, 69, 88, 91, 93, 94, 72, 89, 93, 94, 95, 77, 92, 94, 95, 96, 86, 96, 97, 98, 98, 92, 97, 98, 99, 99, 39, 72, 79, 82, 85, 90, 97, 98, 98, 99, 94, 98, 99, 99, 99, 99, 99, 99, 99, 99, 34, 69, 77, 81, 83, 97, 99, 99, 99, 99, 90, 97, 98, 98, 99, 99, 99, 99, 99, 99, 94, 98, 99, 99, 99, 88, 96, 97, 98, 98, 55, 81, 86, 89, 90, 90, 97, 98, 98, 99, 33, 69, 77, 80, 82, 99, 99, 99, 99, 99, 89, 97, 98, 98, 98, 88, 96, 97, 98, 98, 69, 88, 91, 93, 94, 48, 78, 84, 86, 87, 91, 97, 98, 98, 99, 86, 95, 97, 98, 98, 92, 98, 99, 99, 99, 66, 86, 90, 92, 93, 77, 91, 94, 95, 96, 99, 99, 99, 99, 99, 79, 92, 95, 96, 96, 66, 86, 90, 92, 93, 99, 99, 99, 99, 99, 86, 95, 97, 97, 98, 67, 87, 91, 92, 93, 31, 67, 75, 79, 81, 80, 93, 95, 96, 96, 99, 99, 99, 99, 99, 86, 95, 97, 97, 98, 95, 99, 99, 99, 99, 77, 92, 94, 95, 96, 94, 98, 99, 99, 99, 96, 99, 99, 99, 99, 82, 94, 96, 96, 97]);
precedence = array2d(JOBS,MACHINES,[4, 1, 3, 0, 2, 2, 0, 3, 4, 1, 0, 2, 3, 4, 1, 3, 2, 1, 0, 4, 4, 3, 1, 0, 2, 3, 1, 4, 0, 2, 1, 3, 0, 2, 4, 3, 4, 1, 0, 2, 1, 4, 3, 2, 0, 2, 4, 1, 3, 0]);